52      7       
10      10      10      10      12	8	14
0       0       0       0       0       0	0	0	4       2       3       4       5       
1       0       10      0       2       8	0	0	1       12      
1       2       5       7       0       5	0	0	1       10      
9       3       0       0       0       6	0	0	1       7       
10      0       0       0       4       0	8	0	1       6       
7       0       0       5       8       0	2	0	1       11      
2       0       0       1       2       0	0	9	1       8       
7       0       0       0       2       5	0	0	1       9       
6       9       9       0       0       0	0	10	2       13      44      
9       0       1       10      0       5	0	0	1       14      
6       0       7       4       6       4	0	0	1       16      
3       0       0       0       4       6	0	0	1       17      
5       9       8       0       4       0	0	8	1       18      
9       6       0       0       4       0	6	0	1       15      
4       8       5       5       0       0	2	0	1       19      
5       0       6       7       9       0	0	1	1       20      
7       4       2       3       9       0	0	5	1       23      
6       3       7       0       0       0	0	3	1       37      
1       0       0       6       0       0	0	6	1       21      
6       0       9       0       4       5	0	0	1       22      
2       4       0       10      7       6	0	0	1       29      
4       0       9       0       1       8	0	0	1       24      
5       8       0       10      10      4	0	0	1       25      
3       0       0       0       10      0	4	0	1       26      
3       10      0       2       9       0	0	6	1       27      
8       9       0       7       10      0	0	4	1       28      
7       0       9       0       4       0	5	0	1       33      
9       4       10      0       2       2	0	0	1       32      
9       0       0       0       4       0	0	1	1       30      
5       0       2       4       0       2	0	0	1       31      
2       0       3       0       0       0	4	0	1       35      
3       7       8       0       0       0	0	2	1       34      
4       0       0       0       4       0	0	3	2       35 	36      
9       0       0       7       8       0	0	4	1       44      
7       10      7       2       0       0	0	5	1       41      
7       0       8       8       0       0	6	0	1       43      
7       0       0       0       1       0	0	8	1       38      
5       0       7       5       8       0	2	0	1       39      
9       6       0       0       0       8	0	0	1       40      
6       7       5       0       0       0	0	4	1       42      
2       6       0       9       0       0	3	0	1       47      
9       2       0       0       8       0	0	3	1       48      
3       0       5       6       0       0	2	0	1       51      
1       0       0       2       0       0	2	0	1       45      
10      0       0       0       1       5	0	0	1       46      
2       8       0       9       0       2	0	0	1       49      
6       0       6       0       0       4	0	0	1       50      
6       8       0       0       0       1	0	0	1       52      
1       0       0       10      0       0	0	2	1       52      
3       10      6       6       0       0	1	0	1       52      
6       7       9       6       0       0	0	3	1       52      
0       0       0       0       0       0	0	0	0      
